NAME : 25.78492.tour
COMMENT : Length = 78492
COMMENT : Found by LKH-3 [Keld Helsgaun] Thu Jun 19 18:16:42 2025
TYPE : TOUR
DIMENSION : 100
TOUR_SECTION
1
63
24
36
100
91
87
26
46
38
34
45
76
81
65
32
99
3
66
7
61
39
5
62
43
9
85
11
78
35
28
49
82
88
86
16
80
48
47
92
58
29
83
94
14
59
57
95
54
22
44
55
23
42
37
2
4
21
50
33
67
13
72
8
15
75
6
98
41
40
90
17
71
89
10
53
84
70
60
52
74
97
27
77
69
79
20
56
68
96
31
73
12
51
30
19
25
93
18
64
-1
EOF
